RT is False
Default write of storage_offers_DA.csv just to have a file (but constraint should be inactive)
Reading model...
...model read.
creating competitive generators file...
...competitive generators recorded.
Loading data...
.. day-ahead data with real-time VRE data read.
Compiling instance...
...instance created.
Creating Offer Mitigation (model will solve as dispatch if TRUE)...
Solving...

Welcome to IBM(R) ILOG(R) CPLEX(R) Interactive Optimizer 12.9.0.0
  with Simplex, Mixed Integer & Barrier Optimizers
5725-A06 5725-A29 5724-Y48 5724-Y49 5724-Y54 5724-Y55 5655-Y21
Copyright IBM Corp. 1988, 2019.  All Rights Reserved.

Type 'help' for a list of available commands.
Type 'help' followed by a command name for more
information on commands.

CPLEX> Logfile 'cplex.log' closed.
Logfile 'C:\Users\llavin\Desktop\test919\logs\tmp1y30qi0w.cplex.log' open.
CPLEX> New value for parallel optimization mode: -1
CPLEX> New value for mixed integer optimality gap tolerance: 0.01
CPLEX> New value for integrality tolerance: 1e-09
CPLEX> New value for feasibility tolerance: 0.01
CPLEX> New value for deterministic time limit in ticks: 75000
CPLEX> Problem 'C:\Users\llavin\Desktop\test919\logs\tmpo8oi_obk.pyomo.lp' read.
Read time = 0.06 sec. (3.04 ticks)
CPLEX> Problem name         : C:\Users\llavin\Desktop\test919\logs\tmpo8oi_obk.pyomo.lp
Objective sense      : Minimize
Variables            :   26081  [Nneg: 1,  Box: 21616,  Free: 4464]
Objective nonzeros   :    2496
Linear constraints   :   27515  [Less: 14006,  Greater: 4416,  Equal: 9093]
  Nonzeros           :   89267
  RHS nonzeros       :   12248

Variables            : Min LB: -5000.000        Max UB: 1000000.       
Objective nonzeros   : Min   : 15.73158         Max   : 124.0997       
Linear constraints   :
  Nonzeros           : Min   : 0.8500000        Max   : 3000.000       
  RHS nonzeros       : Min   : 0.6916667        Max   : 5000.000       
CPLEX> CPXPARAM_Parallel                                -1
CPXPARAM_Simplex_Tolerances_Feasibility          0.01
CPXPARAM_DetTimeLimit                            75000
CPXPARAM_MIP_Tolerances_MIPGap                   0.01
CPXPARAM_MIP_Tolerances_Integrality              1.0000000000000001e-09
Parallel mode: opportunistic, using up to 32 threads for concurrent optimization.
Tried aggregator 1 time.
LP Presolve eliminated 21353 rows and 15464 columns.
Aggregator did 766 substitutions.
Reduced LP has 5396 rows, 9851 columns, and 31818 nonzeros.
Presolve time = 0.06 sec. (30.44 ticks)
Symmetry aggregator did 5565 additional substitutions.

Iteration log . . .
Iteration:     1   Dual objective     =             0.000000
Perturbation started.
Iteration:   101   Dual objective     =             0.000000
Iteration:   326   Dual objective     =             1.136890
Iteration:   588   Dual objective     =             1.737985
Iteration:   851   Dual objective     =             1.876695
Iteration:  1058   Dual objective     =             1.991471
Iteration:  1332   Dual objective     =             2.039522
Iteration:  1576   Dual objective     =             2.068340
Iteration:  1797   Dual objective     =             2.089446
Iteration:  2011   Dual objective     =             2.116424
Iteration:  2199   Dual objective     =             2.132109
Iteration:  2408   Dual objective     =          2833.540280
Iteration:  2631   Dual objective     =         15024.389009
Iteration:  3049   Dual objective     =         19125.497211
Removing perturbation.
Using devex.

Primal simplex solved model.


Primal simplex - Optimal:  Objective =  1.9123341720e+04
Solution time =    0.16 sec.  Iterations = 1576 (1042)
Deterministic time = 76.90 ticks  (492.97 ticks/sec)

CPLEX> Solution written to file 'C:\Users\llavin\Desktop\test919\logs\tmpixn0wlbo.cplex.sol'.
CPLEX> Exporting results... 
...storage offer mitigation file created
Converting model to MPEC...
...converted
NOTE: initial MIP solve with only storage competitive to get feasible solution
Solving...

Welcome to IBM(R) ILOG(R) CPLEX(R) Interactive Optimizer 12.9.0.0
  with Simplex, Mixed Integer & Barrier Optimizers
5725-A06 5725-A29 5724-Y48 5724-Y49 5724-Y54 5724-Y55 5655-Y21
Copyright IBM Corp. 1988, 2019.  All Rights Reserved.

Type 'help' for a list of available commands.
Type 'help' followed by a command name for more
information on commands.

CPLEX> Logfile 'cplex.log' closed.
Logfile 'C:\Users\llavin\Desktop\test919\logs\tmpjj2y7xk4.cplex.log' open.
CPLEX> New value for parallel optimization mode: -1
CPLEX> New value for mixed integer optimality gap tolerance: 0.01
CPLEX> New value for integrality tolerance: 1e-09
CPLEX> New value for feasibility tolerance: 0.01
CPLEX> New value for deterministic time limit in ticks: 75000
CPLEX> Problem 'C:\Users\llavin\Desktop\test919\logs\tmpyf8t5588.pyomo.lp' read.
Read time = 0.23 sec. (14.78 ticks)
CPLEX> Problem name         : C:\Users\llavin\Desktop\test919\logs\tmpyf8t5588.pyomo.lp
Objective sense      : Maximize
Variables            :   53805  [Nneg: 1,  Box: 22000,  Free: 4464,
                                 Binary: 27340]
Objective nonzeros   :    8957
Linear constraints   :  123205  [Less: 41346,  Greater: 59096,  Equal: 22763]
  Nonzeros           :  291778
  RHS nonzeros       :   67408

Variables            : Min LB: -5000.000        Max UB: 1000000.       
Objective nonzeros   : Min   : 0.6916667        Max   : 829.5083       
Linear constraints   :
  Nonzeros           : Min   : 0.6916667        Max   : 1000000.       
  RHS nonzeros       : Min   : 0.6916667        Max   : 1000000.       
CPLEX> CPXPARAM_Parallel                                -1
CPXPARAM_Simplex_Tolerances_Feasibility          0.01
CPXPARAM_DetTimeLimit                            75000
CPXPARAM_MIP_Tolerances_MIPGap                   0.01
CPXPARAM_MIP_Tolerances_Integrality              1.0000000000000001e-09
Tried aggregator 3 times.
MIP Presolve eliminated 88776 rows and 19061 columns.
MIP Presolve added 3361 rows and 0 columns.
MIP Presolve modified 24836 coefficients.
Aggregator did 12999 substitutions.
Reduced MIP has 24791 rows, 21174 columns, and 70771 nonzeros.
Reduced MIP has 8356 binaries, 0 generals, 0 SOSs, and 0 indicators.
Presolve time = 0.28 sec. (173.85 ticks)
Probing fixed 405 vars, tightened 2778 bounds.
Probing time = 1.20 sec. (872.83 ticks)
Tried aggregator 2 times.
MIP Presolve eliminated 912 rows and 812 columns.
MIP Presolve modified 2169 coefficients.
Aggregator did 32 substitutions.
Reduced MIP has 23847 rows, 20330 columns, and 68029 nonzeros.
Reduced MIP has 7951 binaries, 0 generals, 0 SOSs, and 0 indicators.
Presolve time = 0.09 sec. (68.36 ticks)
Probing time = 0.03 sec. (15.86 ticks)
Clique table members: 6333.
MIP emphasis: balance optimality and feasibility.
MIP search method: dynamic search.
Parallel mode: opportunistic, using up to 32 threads.
Root relaxation solution time = 0.41 sec. (300.74 ticks)

        Nodes                                         Cuts/
   Node  Left     Objective  IInf  Best Integer    Best Bound    ItCnt     Gap

      0     0     5451.0177  1643                   5451.0177     6464         
      0     0     5450.8630   655                   Cuts: 458     6709         
      0     0     5450.8630   559                   Cuts: 158     6805         
      0     0     5450.8630   550                    Cuts: 69     6844         
      0     0     5450.8630   504                    Cuts: 66     6885         
      0     0     5450.8630   488                    Cuts: 56     6915         
      0     0     5450.8630   472                    Cuts: 39     6931         
      0     0     5450.8630   469                    Cuts: 33     6944         
      0     0     5450.8630     3                 Impl Bds: 1     6944         
*     0+    0                         5450.8630     5450.8630             0.00%
      0     0        cutoff           5450.8630     5450.8630     6944    0.00%
Elapsed time = 7.50 sec. (4874.88 ticks, tree = 0.01 MB, solutions = 1)

Clique cuts applied:  4
Implied bound cuts applied:  5
Flow cuts applied:  266
Mixed integer rounding cuts applied:  16
Gomory fractional cuts applied:  21

Root node processing (before b&c):
  Real time             =    7.52 sec. (4876.71 ticks)
Parallel b&c, 32 threads:
  Real time             =    0.00 sec. (0.00 ticks)
  Sync time (average)   =    0.00 sec.
  Wait time (average)   =    0.00 sec.
                          ------------
Total (root+branch&cut) =    7.52 sec. (4876.71 ticks)

Solution pool: 1 solution saved.

MIP - Integer optimal solution:  Objective =  5.4508630289e+03
Solution time =    7.55 sec.  Iterations = 6944  Nodes = 0
Deterministic time = 4876.87 ticks  (646.20 ticks/sec)

CPLEX> Incumbent solution written to file 'C:\Users\llavin\Desktop\test919\logs\tmpk779kwpd.cplex.sol'.
CPLEX> NOTE: no warmstart specified for MIP iteration, default behavior is true
NOTE: resolving with all competitive generators using storage-only solution to warmstart
Solving...

Welcome to IBM(R) ILOG(R) CPLEX(R) Interactive Optimizer 12.9.0.0
  with Simplex, Mixed Integer & Barrier Optimizers
5725-A06 5725-A29 5724-Y48 5724-Y49 5724-Y54 5724-Y55 5655-Y21
Copyright IBM Corp. 1988, 2019.  All Rights Reserved.

Type 'help' for a list of available commands.
Type 'help' followed by a command name for more
information on commands.

CPLEX> Logfile 'cplex.log' closed.
Logfile 'C:\Users\llavin\Desktop\test919\logs\tmpnwnuh96r.cplex.log' open.
CPLEX> New value for parallel optimization mode: -1
CPLEX> New value for mixed integer optimality gap tolerance: 0.01
CPLEX> New value for integrality tolerance: 1e-09
CPLEX> New value for feasibility tolerance: 0.01
CPLEX> New value for deterministic time limit in ticks: 75000
CPLEX> Problem 'C:\Users\llavin\Desktop\test919\logs\tmpz_365q74.pyomo.lp' read.
Read time = 0.25 sec. (14.81 ticks)
CPLEX> MIP start file 'C:\Users\llavin\Desktop\test919\logs\tmprg5i_x6g.cplex.mst' read.
CPLEX> Problem name         : C:\Users\llavin\Desktop\test919\logs\tmpz_365q74.pyomo.lp
Objective sense      : Maximize
Variables            :   54525  [Nneg: 1,  Box: 22720,  Free: 4464,
                                 Binary: 27340]
Objective nonzeros   :    9653
Linear constraints   :  123205  [Less: 41346,  Greater: 59096,  Equal: 22763]
  Nonzeros           :  291778
  RHS nonzeros       :   67408

Variables            : Min LB: -5000.000        Max UB: 1000000.       
Objective nonzeros   : Min   : 0.6916667        Max   : 777.6750       
Linear constraints   :
  Nonzeros           : Min   : 0.6916667        Max   : 1000000.       
  RHS nonzeros       : Min   : 0.6916667        Max   : 1000000.       
CPLEX> CPXPARAM_Parallel                                -1
CPXPARAM_Simplex_Tolerances_Feasibility          0.01
CPXPARAM_DetTimeLimit                            75000
CPXPARAM_MIP_Tolerances_MIPGap                   0.01
CPXPARAM_MIP_Tolerances_Integrality              1.0000000000000001e-09
Warning:  No solution found from 1 MIP starts.
Retaining values of one MIP start for possible repair.
Tried aggregator 3 times.
MIP Presolve eliminated 88776 rows and 19781 columns.
MIP Presolve added 3361 rows and 0 columns.
MIP Presolve modified 24836 coefficients.
Aggregator did 12999 substitutions.
Reduced MIP has 24791 rows, 21174 columns, and 70771 nonzeros.
Reduced MIP has 8356 binaries, 0 generals, 0 SOSs, and 0 indicators.
Presolve time = 0.30 sec. (174.21 ticks)
Probing fixed 405 vars, tightened 2778 bounds.
Probing time = 1.19 sec. (872.83 ticks)
Tried aggregator 2 times.
MIP Presolve eliminated 912 rows and 812 columns.
MIP Presolve modified 2169 coefficients.
Aggregator did 32 substitutions.
Reduced MIP has 23847 rows, 20330 columns, and 68029 nonzeros.
Reduced MIP has 7951 binaries, 0 generals, 0 SOSs, and 0 indicators.
Presolve time = 0.11 sec. (68.37 ticks)
Probing time = 0.03 sec. (15.86 ticks)
Clique table members: 6333.
MIP emphasis: balance optimality and feasibility.
MIP search method: dynamic search.
Parallel mode: opportunistic, using up to 32 threads.
Root relaxation solution time = 0.44 sec. (302.53 ticks)

        Nodes                                         Cuts/
   Node  Left     Objective  IInf  Best Integer    Best Bound    ItCnt     Gap

      0     0   108059.8410  1729                 108059.8410     6195         
      0     0   104227.5459   642                   Cuts: 519     6481         
      0     0   102789.1839   618                   Cuts: 197     6628         
      0     0   102633.6138   589                   Cuts: 170     6686         
      0     0   102605.8535   574                   Cuts: 115     6727         
      0     0   102565.1746   559                    Cuts: 85     6763         
      0     0   102563.5846   542                    Cuts: 71     6792         
      0     0   102562.3717   539                    Cuts: 68     6812         
      0     0   102507.6267   520                    Cuts: 50     6836         
      0     0   102505.3758   515                    Cuts: 34     6846         
Repair heuristic found nothing.
      0    15    infeasible                          Cuts: 28     7044         
Elapsed time = 10.77 sec. (6559.72 ticks, tree = 0.02 MB, solutions = 0)
    227    76    59847.8782   412                  90515.5778     9700         
    475   195    79973.0422   422                  90515.5778    13048         
    968   387    61169.8643   396                  90515.5778    17181         
   1699   688    infeasible                        90515.5778    20435         
   2375  1024    infeasible                        90515.5778    26968         
   3134  1280    33680.0704   377                  90515.5778    31220         
   4015  2195    19219.0977   312                  90515.5778    38695         
   5368  2517    28495.2142   363                  90515.5778    39894         
   6498  4969    23400.0232   291                  90515.5778    42348         
  10735  9038    27398.5763   232                  90515.5778    45329         
Elapsed time = 28.83 sec. (9663.99 ticks, tree = 85.32 MB, solutions = 1)
* 11377+ 5629                        29146.4076    90515.5778           210.55%
  14674  4180        cutoff          32646.2795    90515.5778    50901  177.26%
  14677  5720    infeasible          32646.2795    55735.4112    64706   70.73%
  15473    72    32943.5228    50    32646.2795    38677.1734    72577   18.47%
  17163   458    34988.1147    53    32646.2795    37934.6880    78391   16.20%
  19128  1044    33800.4113    32    33894.6805    37076.8167    85800    9.39%
  20581  2190    33613.3526     7    33894.6805    37076.8167    96980    9.39%
  22136  1776    34003.0084    31    33894.6805    36957.9168   108728    9.04%
  23371  1658    34578.0951     6    33894.6805    36957.9168   107296    9.04%
  23952  1669    34578.0951     6    33894.6805    36957.9168   107327    9.04%
Elapsed time = 65.89 sec. (22285.04 ticks, tree = 10.84 MB, solutions = 5)
  24217  3424    34578.0951     7    33894.6805    36957.9168   124030    9.04%
  24436  2020    34495.1446     8    33894.6805    36957.9168   111737    9.04%
  24591  2537        cutoff          33894.6805    36957.9168   116423    9.04%
  24753  2939    33999.3185     8    33894.6805    36957.9168   119874    9.04%
  24873  2538    34502.7006     7    33894.6805    36957.9168   116427    9.04%
  25011  2769    34578.0951     6    33894.6805    36957.9168   118107    9.04%
  25124  2941    33999.3185     7    33894.6805    36957.9168   119885    9.04%
  25248  4344    33906.0505     8    33894.6805    36957.9168   132600    9.04%
  25354  4347    33906.0505     8    33894.6805    36957.9168   132621    9.04%
  25478  4348        cutoff          33894.6805    36957.9168   132632    9.04%
Elapsed time = 73.92 sec. (31905.89 ticks, tree = 39.91 MB, solutions = 5)
  25614  4493        cutoff          33894.6805    36957.9168   134222    9.04%
  25741  3995    34495.1446    11    33894.6805    36957.9168   130559    9.04%
  25882  3996    34495.1446    11    33894.6805    36957.9168   130561    9.04%
  25990  4847    34578.0951     7    33894.6805    36957.9168   139511    9.04%
  26215  5302    34495.1446    12    33894.6805    36957.9168   145881    9.04%
  26358  4434    34143.6798     7    33894.6805    36957.9168   133647    9.04%
  26504  5221    34122.6571     7    33894.6805    36957.9168   144934    9.04%
  26718  5389    34350.6845     7    33894.6805    36816.0645   148823    8.62%
  26889  5251        cutoff          33894.6805    36816.0645   145154    8.62%
  27120  4767        cutoff          33894.6805    36816.0645   137188    8.62%
Elapsed time = 84.53 sec. (41512.17 ticks, tree = 44.77 MB, solutions = 6)
  27427  5415    34502.7006     5    33894.6805    36816.0645   149425    8.62%
* 27663  5349      integral     0    33909.7280    36816.0645   146334    8.57%
  27738  4814    34495.1446     9    33909.7280    36816.0645   139161    8.57%
  28084  5104        cutoff          33909.7280    36816.0645   143796    8.57%
  28503  4991    34003.0084     8    33909.7280    36483.6190   142691    7.59%
  28686  5158        cutoff          33909.7280    36483.6190   144072    7.59%
  28826  5299    34177.8898     7    33909.7280    36483.6190   146039    7.59%
  29012  5262    34495.1446     8    33909.7280    36483.6190   145156    7.59%
  29164  6263        cutoff          33909.7280    36483.6190   160392    7.59%
  29364  5305    34177.8898     7    33909.7280    36483.6190   146068    7.59%
  29536  5352        cutoff          33909.7280    36483.6190   146326    7.59%
Elapsed time = 93.55 sec. (51096.64 ticks, tree = 52.88 MB, solutions = 6)
  29891  5577    34780.8308    53    33909.7280    36483.6190   151345    7.59%
  30122  5553        cutoff          33909.7280    36483.6190   150393    7.59%
  30272  6455        cutoff          33909.7280    36483.6190   161898    7.59%
  30518  6511        cutoff          33909.7280    36483.6190   162837    7.59%
  30663  6106    34177.8898     7    33909.7280    36483.6190   159050    7.59%
  30812  6270        cutoff          33909.7280    36483.6190   160415    7.59%
  30932  6878        cutoff          33909.7280    36483.6190   168574    7.59%
  31117  6925        cutoff          33909.7280    36483.6190   169189    7.59%
  31375  6221        cutoff          33909.7280    36483.6190   160080    7.59%
  31566  6988    34082.2014     7    33909.7280    36483.6190   169850    7.59%
Elapsed time = 100.61 sec. (60669.67 ticks, tree = 73.11 MB, solutions = 7)
  31789  6607    34329.0213     7    33909.7280    36483.6190   164820    7.59%
  31934  7016    34341.6737     7    33909.7280    36483.6190   170176    7.59%
  32142  6995    34082.2014     6    33909.7280    36483.6190   169869    7.59%
  32318  7315    34342.1214    29    33909.7280    36483.6190   173998    7.59%
  32476  7043    34337.8064     8    33909.7280    36483.6190   170370    7.59%
  32637  7019    33947.3251     6    33909.7280    36483.6190   170217    7.59%
  32819  7044        cutoff          33909.7280    36483.6190   170112    7.59%
  33001  7081    35044.9970    67    33909.7280    36483.6190   170889    7.59%
* 33010  7451      integral     0    34581.7726    36483.6190   175729    5.50%
  33145  7077    34898.9807    40    34581.7726    36483.6190   171033    5.50%
  33374  7170    34063.1817    13    34581.7726    36483.6190   172494    5.50%
Elapsed time = 104.41 sec. (70257.00 ticks, tree = 75.35 MB, solutions = 7)
  33457  7372        cutoff          34581.7726    36483.6190   174245    5.50%
  33512  7096        cutoff          34581.7726    36483.6190   171841    5.50%
  33554  7057        cutoff          34581.7726    36483.6190   170986    5.50%
  33578  7393        cutoff          34581.7726    36483.6190   174666    5.50%

Clique cuts applied:  3
Cover cuts applied:  6
Implied bound cuts applied:  35
Flow cuts applied:  208
Mixed integer rounding cuts applied:  53
Zero-half cuts applied:  2
Gomory fractional cuts applied:  98

Root node processing (before b&c):
  Real time             =    9.42 sec. (6552.83 ticks)
Parallel b&c, 32 threads:
  Real time             =   96.44 sec. (68991.95 ticks)
  Sync time (average)   =    2.86 sec.
  Wait time (average)   =    0.26 sec.
                          ------------
Total (root+branch&cut) =  105.86 sec. (75544.79 ticks)

Solution pool: 7 solutions saved.

MIP - Deterministic time limit exceeded, integer feasible:  Objective =  3.4581772610e+04
Current MIP best bound =  3.6483619010e+04 (gap = 1901.85, 5.50%)
Solution time =  105.89 sec.  Iterations = 187102  Nodes = 33614 (1221)
Deterministic time = 75544.94 ticks  (713.42 ticks/sec)

CPLEX> Incumbent solution written to file 'C:\Users\llavin\Desktop\test919\logs\tmpju23ibu9.cplex.sol'.
CPLEX> Exporting results... 
